solution status: optimal solution found
objective value:                     170372.618806162
d11(0,0)                                            1 	(obj:0)
d11(1,1)                                            1 	(obj:0)
d11(1,2)                                            1 	(obj:0)
d11(2,3)                                            1 	(obj:0)
d11(2,5)                                            1 	(obj:0)
d11(2,6)                                            1 	(obj:0)
d11(3,7)                                            1 	(obj:0)
d11(3,8)                                            1 	(obj:0)
d11(3,9)                                            1 	(obj:0)
d11(3,10)                                           1 	(obj:0)
d11(3,11)                                           1 	(obj:0)
d11(3,13)                                           1 	(obj:0)
d11(4,15)                                           1 	(obj:0)
d11(4,16)                                           1 	(obj:0)
d11(4,17)                                           1 	(obj:0)
d11(4,18)                                           1 	(obj:0)
d11(4,19)                                           1 	(obj:0)
d11(4,20)                                           1 	(obj:0)
d11(4,21)                                           1 	(obj:0)
d11(4,22)                                           1 	(obj:0)
d11(4,23)                                           1 	(obj:0)
d11(4,24)                                           1 	(obj:0)
d11(4,25)                                           1 	(obj:0)
d11(4,27)                                           1 	(obj:0)
d11(4,28)                                           1 	(obj:0)
d11(4,29)                                           1 	(obj:0)
d21(3,7)                                            1 	(obj:0)
d21(4,15)                                           1 	(obj:0)
d21(4,16)                                           1 	(obj:0)
d21(4,17)                                           1 	(obj:0)
d21(4,18)                                           1 	(obj:0)
d21(4,19)                                           1 	(obj:0)
d21(4,23)                                           1 	(obj:0)
STE(1,1)                             6761.25004888501 	(obj:0)
STE(0,0)                                         9450 	(obj:0)
STE(1,2)                             8419.49994777383 	(obj:0)
STE(2,3)                             4347.00014999619 	(obj:0)
STE(2,4)                             6005.25004888501 	(obj:0)
STE(2,5)                             6005.25004888501 	(obj:0)
STE(2,6)                             7663.49994777383 	(obj:0)
STE(3,7)                             1932.75025110738 	(obj:0)
STE(3,8)                             3591.00014999619 	(obj:0)
STE(3,9)                             3591.00014999619 	(obj:0)
STE(3,10)                            5249.25004888501 	(obj:0)
STE(3,11)                            3591.00014999619 	(obj:0)
STE(3,12)                            5249.25004888501 	(obj:0)
STE(3,13)                            5249.25004888501 	(obj:0)
STE(3,14)                            6907.49994777383 	(obj:0)
STE(4,15)                           -481.499647781469 	(obj:0)
STE(4,16)                            1176.75025110738 	(obj:0)
STE(4,17)                            1176.75025110735 	(obj:0)
STE(4,18)                            2835.00014999617 	(obj:0)
STE(4,19)                            1176.75025110732 	(obj:0)
STE(4,20)                            2835.00014999619 	(obj:0)
STE(4,21)                            2835.00014999617 	(obj:0)
STE(4,22)                            4493.25004888501 	(obj:0)
STE(4,23)                            1176.75025110735 	(obj:0)
STE(4,24)                                  2835.00015 	(obj:0)
STE(4,25)                            2835.00014999617 	(obj:0)
STE(4,26)                            4493.25004888501 	(obj:0)
STE(4,27)                            2835.00014999617 	(obj:0)
STE(4,28)                            4493.25004888501 	(obj:0)
STE(4,29)                            4493.25004888498 	(obj:0)
STE(4,30)                            6151.49994777383 	(obj:0)
y1(3,11)                             1492.42490899994 	(obj:0)
y1(3,13)                             1492.42490899994 	(obj:0)
y1(4,15)                             1492.42490899996 	(obj:0)
y1(4,17)                             1492.42490899996 	(obj:0)
y1(4,19)                             1492.42490899994 	(obj:0)
y1(4,21)                             1492.42490899996 	(obj:0)
y1(4,23)                             1492.42490899996 	(obj:0)
y1(4,24)                         -3.42610292136669e-009 	(obj:0)
y1(4,25)                             1492.42490899996 	(obj:0)
y1(4,27)                             1492.42490899996 	(obj:0)
y1(4,29)                             1492.42490899996 	(obj:0)
AVE(1)                               3265.91696791192 	(obj:0)
WB(2)                                3332.74178563731 	(obj:0)
AVE(2)                               3332.74178563731 	(obj:0)
WB(3)                                3444.11697932125 	(obj:0)
AVE(3)                               3444.11697932125 	(obj:0)
AVE(4)                               3399.56511093778 	(obj:0)
WG(1)                                3265.91696791192 	(obj:10)
WG(4)                                3399.56511093778 	(obj:10)
BG(1)                                1182.46741576515 	(obj:10)
BG(2)                                4196.29249897957 	(obj:10)
BG(3)                                4196.29249897957 	(obj:10)
BG(4)                                796.727388041812 	(obj:10)
y1(1,1)                              1739.47495600349 	(obj:0)
y1(1,2)                              247.050047003553 	(obj:0)
y1(2,3)                              1492.42490899994 	(obj:0)
y1(2,5)                              1492.42490899994 	(obj:0)
y1(3,7)                              1492.42490899994 	(obj:0)
y1(3,9)                              1492.42490899994 	(obj:0)
